NAME : in_house_7_12
TYPE : TSP
DIMENSION : 7
EDGE_WEIGHT_TYPE : EXPLICIT
EDGE_WEIGHT_FORMAT : UPPER_ROW
COMMENT : INVERSION_SHIFT=3
EDGE_WEIGHT_SECTION
25
19
40
46
44
28
38
35
48
31
40
38
2
36
14
40
1
10
28
4
45
